c FILE /home/rafael/Documents/HappySet/MIHS/inputs/happygen/output/graph_d_regular_k2_p0.5_v50_20241127_082551.txt
c SOURCE This is a d-regular graph formed for the happy graph colouring problem.
c DESCRIPTION It was generated using the problem generator of Rhyd Lewis
c
c GRAPH STATS
c Seed                             = 783296569
c Number of Nodes                  = 50
c Number of colours k              = 2
c Number of pre-assignments        = 25
c Degree of all vertices           = 6
c Density                          = 0.122449
c 
c The degrees of nodes 1 to 50, respectively, are as follows 
c [6, 6, 6, 6, 6, 6, 6, 6, 6, 6, 6, 6, 6, 6, 6, 6, 6, 6, 6, 6, 6, 6, 6, 6, 6, 6, 
c  6, 6, 6, 6, 6, 6, 6, 6, 6, 6, 6, 6, 6, 6, 6, 6, 6, 6, 6, 6, 6, 6, 6, 6] 
c  
p edge 50 150 2
e 1 2
e 1 17
e 1 20
e 1 33
e 1 44
e 1 46
e 2 7
e 2 13
e 2 19
e 2 22
e 2 23
e 3 12
e 3 25
e 3 33
e 3 40
e 3 42
e 3 47
e 4 9
e 4 19
e 4 23
e 4 36
e 4 38
e 4 45
e 5 8
e 5 9
e 5 15
e 5 21
e 5 43
e 5 46
e 6 11
e 6 20
e 6 22
e 6 31
e 6 36
e 6 39
e 7 24
e 7 38
e 7 41
e 7 46
e 7 50
e 8 17
e 8 26
e 8 27
e 8 28
e 8 47
e 9 14
e 9 16
e 9 44
e 9 49
e 10 13
e 10 16
e 10 19
e 10 21
e 10 34
e 10 39
e 11 13
e 11 14
e 11 20
e 11 27
e 11 35
e 12 30
e 12 31
e 12 39
e 12 41
e 12 48
e 13 31
e 13 44
e 13 50
e 14 17
e 14 26
e 14 32
e 14 38
e 15 21
e 15 29
e 15 36
e 15 40
e 15 41
e 16 26
e 16 33
e 16 35
e 16 42
e 17 26
e 17 47
e 17 50
e 18 19
e 18 24
e 18 29
e 18 30
e 18 42
e 18 48
e 19 22
e 19 45
e 20 25
e 20 28
e 20 40
e 21 27
e 21 44
e 21 46
e 22 24
e 22 35
e 22 38
e 23 31
e 23 36
e 23 37
e 23 39
e 24 29
e 24 46
e 24 50
e 25 28
e 25 32
e 25 43
e 25 50
e 26 28
e 26 43
e 27 30
e 27 37
e 27 45
e 28 29
e 28 36
e 29 42
e 29 49
e 30 40
e 30 47
e 30 48
e 31 37
e 31 38
e 32 34
e 32 37
e 32 40
e 32 42
e 33 34
e 33 47
e 33 49
e 34 43
e 34 44
e 34 48
e 35 37
e 35 38
e 35 41
e 36 37
e 39 40
e 39 42
e 41 43
e 41 49
e 43 45
e 44 47
e 45 46
e 45 49
e 48 49
e 48 50
n 6 1
n 7 2
n 8 1
n 11 1
n 12 2
n 13 1
n 14 1
n 16 1
n 17 1
n 18 2
n 19 2
n 23 1
n 25 1
n 26 1
n 27 1
n 29 2
n 34 1
n 36 1
n 37 1
n 40 2
n 43 1
n 44 1
n 46 2
n 47 1
n 49 2
